# GAME PLAN
# Determine box size from the equilibrated ice cube of data.ice_284K_1atm_ML
# read in ice data
# read in water data and shift on the x-axis by xhi
# remove overlaps
# hold ice fixed while equilibrating water for 1ns at 280K
# save configuration


variable            NAME string icewater_289K_1atm_LG
variable            TEMP string 289
variable            PRES string 1
variable            TCOUPL string 5000.0
variable            PCOUPL string 10000.0
variable            TDAMP string 1000.0
variable            PDAMP string 2500.0

units	   	    real
atom_style 	    atomic
log		    log.eq_${NAME}


## Ice Seed volumetric data:
#
# -0.024949447635329136 57.2954594476322 xlo xhi
# -0.024949447635329136 57.2954594476322 ylo yhi
# -0.024949447635329136 57.2954594476322 zlo zhi
#
variable ICE_LO equal -0.024949447635329136
variable ICE_HI equal 57.2954594476322
variable ICE_WIDTH equal v_ICE_HI-v_ICE_LO


################################################
####### Equilibrate Liquid Water #########
################################################

log log.${NAME}.eq_icewater


read_data data.ice_289K_1atm_LG group ice
read_data data.water_289K_1atm_LG add append shift ${ICE_HI} ${ICE_LO} ${ICE_LO} group water

write_data data.icewater_test

# Define potential
#
pair_style sw
pair_coeff * * ML.sw mW

# Delete water and ice atoms that are overlapping
#
delete_atoms overlap 2.4 water ice

# set timestep
#
timestep 10.0

# Define output
#
compute 1 all msd
thermo 50
thermo_style custom step temp press vol etotal ke pe c_1[4]

# Neighbor lists
#
neigh_modify delay 0 every 1 check yes

# Set fixes
#
fix 1 all momentum 10 linear 1 1 1 rescale
fix 2 all nph iso ${PRES} ${PRES} ${PCOUPL} 
fix 3 all temp/csvr ${TEMP} ${TEMP} ${TCOUPL} 837492


# Fix ice atoms in place
#
velocity ice set 0.0 0.0 0.0
fix 4 ice setforce 0.0 0.0 0.0

# Run 1.0 ns equilibration of water
#
dump 1 all atom 1000 eq.all.${NAME}.dump
run 100000

# Create data file for import to other simulations
#
write_data data.icewater_1atm_LG

